begin Projections
random
end Projections
begin atoms_cart
Ang
na_1          0.000000       0.000000       0.000000
end atoms_cart
num_wann =    9
begin unit_cell_cart
Ang
   -2.11249999       2.11249999       2.11249999
    2.11249999      -2.11249999       2.11249999
    2.11249999       2.11249999      -2.11249999
end unit_cell_cart
mp_grid =    6    6    6
begin kpoints
    0.00000000       0.00000000       0.00000000
    0.16666667       0.00000000      -0.00000000
    0.33333333       0.00000000      -0.00000000
    0.50000000       0.00000000      -0.00000000
    0.00000000       0.16666667       0.16666667
    0.33333333       0.16666667      -0.00000000
   -0.33333333      -0.00000000      -0.33333333
    0.16666667       0.16666667       0.16666667
    0.33333333       0.16666667       0.16666667
   -0.16666667       0.16666667       0.16666667
    0.16666667      -0.16666667       0.33333333
   -0.50000000       0.16666667      -0.16666667
    0.16666667      -0.33333333      -0.33333333
   -0.33333333       0.33333333       0.33333333
    0.50000000      -0.50000000       0.33333333
    0.50000000      -0.50000000       0.50000000
   -0.16666667      -0.00000000       0.00000000
    0.16666667       0.00000000      -0.16666667
   -0.16666667      -0.00000000       0.16666667
    0.00000000       0.16666667      -0.16666667
   -0.00000000      -0.16666667       0.16666667
    0.00000000       0.16666667      -0.00000000
   -0.00000000      -0.16666667       0.00000000
   -0.16666667       0.16666667       0.00000000
    0.16666667      -0.16666667      -0.00000000
    0.00000000       0.00000000       0.16666667
   -0.00000000      -0.00000000      -0.16666667
   -0.33333333      -0.00000000       0.00000000
    0.33333333       0.00000000      -0.33333333
   -0.33333333      -0.00000000       0.33333333
    0.00000000       0.33333333      -0.33333333
   -0.00000000      -0.33333333       0.33333333
    0.00000000       0.33333333      -0.00000000
   -0.00000000      -0.33333333       0.00000000
   -0.33333333       0.33333333       0.00000000
    0.33333333      -0.33333333      -0.00000000
    0.00000000       0.00000000       0.33333333
   -0.00000000      -0.00000000      -0.33333333
    0.50000000       0.00000000      -0.50000000
    0.00000000       0.50000000      -0.50000000
    0.00000000       0.50000000      -0.00000000
   -0.50000000       0.50000000       0.00000000
    0.00000000       0.00000000       0.50000000
   -0.00000000      -0.16666667      -0.16666667
    0.33333333      -0.16666667      -0.00000000
   -0.33333333       0.16666667       0.00000000
    0.16666667       0.00000000      -0.33333333
   -0.16666667      -0.00000000       0.33333333
   -0.16666667       0.33333333      -0.16666667
    0.16666667      -0.33333333       0.16666667
   -0.33333333       0.16666667       0.16666667
    0.33333333      -0.16666667      -0.16666667
   -0.16666667       0.00000000      -0.16666667
    0.16666667      -0.00000000       0.16666667
    0.16666667      -0.33333333      -0.00000000
   -0.16666667       0.33333333       0.00000000
   -0.00000000      -0.16666667       0.33333333
    0.00000000       0.16666667      -0.33333333
   -0.00000000       0.33333333      -0.16666667
    0.00000000      -0.33333333       0.16666667
   -0.16666667      -0.16666667       0.33333333
    0.16666667       0.16666667      -0.33333333
   -0.16666667      -0.16666667      -0.00000000
    0.16666667       0.16666667       0.00000000
    0.33333333      -0.00000000      -0.16666667
   -0.33333333       0.00000000       0.16666667
   -0.33333333      -0.16666667       0.00000000
    0.50000000       0.00000000      -0.33333333
   -0.50000000      -0.00000000       0.33333333
    0.16666667       0.33333333      -0.50000000
   -0.16666667      -0.33333333       0.50000000
    0.00000000       0.50000000      -0.16666667
   -0.00000000      -0.50000000       0.16666667
   -0.50000000      -0.00000000       0.16666667
    0.50000000       0.00000000      -0.16666667
   -0.16666667      -0.33333333       0.00000000
    0.16666667       0.33333333      -0.00000000
   -0.00000000      -0.50000000       0.33333333
    0.00000000       0.50000000      -0.33333333
   -0.33333333      -0.16666667       0.50000000
    0.33333333       0.16666667      -0.50000000
    0.00000000       0.33333333       0.16666667
   -0.00000000      -0.33333333      -0.16666667
   -0.33333333       0.50000000       0.00000000
    0.33333333      -0.50000000      -0.00000000
   -0.50000000       0.16666667       0.33333333
    0.50000000      -0.16666667      -0.33333333
   -0.16666667       0.00000000       0.50000000
    0.16666667      -0.00000000      -0.50000000
    0.16666667      -0.50000000      -0.00000000
   -0.16666667       0.50000000       0.00000000
    0.00000000      -0.16666667      -0.33333333
   -0.00000000       0.16666667       0.33333333
    0.33333333      -0.00000000      -0.50000000
   -0.33333333       0.00000000       0.50000000
    0.50000000      -0.33333333      -0.16666667
   -0.50000000       0.33333333       0.16666667
    0.16666667      -0.00000000       0.33333333
   -0.16666667       0.00000000      -0.33333333
    0.00000000      -0.33333333       0.50000000
   -0.00000000       0.33333333      -0.50000000
    0.33333333      -0.50000000       0.16666667
   -0.33333333       0.50000000      -0.16666667
    0.50000000      -0.16666667       0.00000000
   -0.50000000       0.16666667      -0.00000000
   -0.00000000       0.16666667      -0.50000000
    0.00000000      -0.16666667       0.50000000
   -0.33333333       0.00000000      -0.16666667
    0.33333333      -0.00000000       0.16666667
   -0.50000000       0.33333333      -0.00000000
    0.50000000      -0.33333333       0.00000000
   -0.16666667       0.50000000      -0.33333333
    0.16666667      -0.50000000       0.33333333
    0.33333333       0.00000000       0.33333333
   -0.66666667       0.33333333       0.33333333
    0.66666667      -0.33333333      -0.33333333
   -0.00000000      -0.33333333       0.66666667
    0.00000000       0.33333333      -0.66666667
    0.33333333      -0.66666667       0.00000000
   -0.33333333       0.66666667      -0.00000000
   -0.16666667      -0.16666667      -0.16666667
    0.50000000      -0.16666667      -0.16666667
   -0.50000000       0.16666667       0.16666667
    0.16666667       0.16666667      -0.50000000
   -0.16666667      -0.16666667       0.50000000
   -0.16666667       0.50000000      -0.16666667
    0.16666667      -0.50000000       0.16666667
   -0.33333333      -0.16666667      -0.16666667
    0.66666667      -0.16666667      -0.33333333
   -0.66666667       0.16666667       0.33333333
    0.16666667       0.33333333      -0.66666667
   -0.16666667      -0.33333333       0.66666667
   -0.16666667       0.66666667      -0.16666667
    0.16666667      -0.66666667       0.16666667
   -0.33333333       0.66666667      -0.16666667
    0.33333333      -0.66666667       0.16666667
   -0.16666667      -0.16666667       0.66666667
    0.16666667       0.16666667      -0.66666667
    0.16666667      -0.16666667      -0.16666667
    0.16666667      -0.16666667       0.16666667
   -0.16666667       0.16666667      -0.16666667
    0.16666667       0.16666667      -0.16666667
   -0.16666667      -0.16666667       0.16666667
   -0.16666667       0.16666667      -0.33333333
    0.33333333      -0.33333333      -0.16666667
   -0.33333333       0.33333333       0.16666667
   -0.33333333       0.33333333      -0.16666667
    0.33333333      -0.33333333       0.16666667
    0.16666667      -0.16666667      -0.33333333
   -0.16666667       0.16666667       0.33333333
    0.33333333       0.16666667      -0.16666667
   -0.33333333      -0.16666667       0.16666667
   -0.16666667       0.33333333      -0.33333333
    0.16666667      -0.33333333       0.33333333
   -0.16666667      -0.33333333       0.33333333
    0.16666667       0.33333333      -0.33333333
   -0.33333333       0.16666667      -0.16666667
    0.33333333      -0.16666667       0.16666667
   -0.16666667       0.33333333       0.16666667
    0.16666667      -0.33333333      -0.16666667
   -0.33333333      -0.16666667       0.33333333
    0.33333333       0.16666667      -0.33333333
    0.33333333      -0.16666667      -0.33333333
   -0.33333333       0.16666667       0.33333333
   -0.16666667      -0.33333333       0.16666667
    0.16666667       0.33333333      -0.16666667
    0.50000000      -0.16666667       0.16666667
   -0.50000000       0.16666667       0.50000000
    0.50000000      -0.16666667      -0.50000000
    0.16666667      -0.50000000       0.50000000
   -0.16666667       0.50000000      -0.50000000
    0.16666667      -0.50000000      -0.16666667
   -0.16666667       0.50000000       0.16666667
    0.50000000      -0.50000000       0.16666667
   -0.50000000       0.50000000      -0.16666667
   -0.16666667       0.16666667      -0.50000000
    0.16666667      -0.16666667       0.50000000
   -0.16666667       0.33333333       0.33333333
   -0.50000000       0.33333333      -0.16666667
    0.50000000      -0.33333333       0.16666667
   -0.33333333       0.16666667       0.50000000
    0.33333333      -0.16666667      -0.50000000
    0.33333333      -0.50000000       0.33333333
   -0.33333333       0.50000000      -0.33333333
    0.50000000      -0.33333333      -0.33333333
   -0.50000000       0.33333333       0.33333333
    0.33333333      -0.16666667       0.33333333
   -0.33333333       0.16666667      -0.33333333
   -0.33333333       0.50000000       0.16666667
    0.33333333      -0.50000000      -0.16666667
   -0.16666667       0.33333333      -0.50000000
    0.16666667      -0.33333333       0.50000000
   -0.16666667      -0.50000000       0.33333333
    0.16666667       0.50000000      -0.33333333
    0.33333333       0.33333333      -0.50000000
   -0.33333333      -0.33333333       0.50000000
    0.33333333       0.33333333      -0.16666667
   -0.33333333      -0.33333333       0.16666667
   -0.50000000      -0.16666667       0.33333333
    0.50000000       0.16666667      -0.33333333
    0.33333333      -0.33333333      -0.33333333
    0.33333333      -0.33333333       0.33333333
   -0.33333333       0.33333333      -0.33333333
    0.33333333       0.33333333      -0.33333333
   -0.33333333      -0.33333333       0.33333333
   -0.50000000       0.50000000      -0.33333333
    0.33333333      -0.33333333      -0.50000000
   -0.33333333       0.33333333       0.50000000
    0.33333333       0.50000000      -0.50000000
   -0.33333333      -0.50000000       0.50000000
   -0.50000000       0.33333333      -0.33333333
    0.50000000      -0.33333333       0.33333333
   -0.50000000       0.33333333       0.50000000
    0.50000000      -0.33333333      -0.50000000
   -0.33333333      -0.50000000       0.33333333
    0.33333333       0.50000000      -0.33333333
end kpoints
num_bands =   17
exclude_bands = 1 -    4,     22-   38
num_iter =     0
dis_num_iter =   100
dis_win_max =    50.000000
dis_win_min =   -15.000000
dis_froz_max =     7.000000
dis_froz_min =   -15.000000
